HUN,8,6,859
2,72,4,8,0,57,5,50,3,4,1,80
4,26,1,80,2,95,3,84,0,98,5,41
4,47,2,43,3,85,0,2,1,88,5,40
3,49,2,74,5,46,1,100,4,95,0,14
4,72,1,88,3,8,0,37,5,23,2,59
2,36,4,90,5,70,0,1,1,8,3,84
4,32,0,36,3,38,1,20,2,80,5,45
3,95,2,37,0,20,4,11,1,5,5,10
